100
[20,21,22,23,24,25,26,27,28,29,30,31,32,33,34,35,36,37,38,39,40,41,42,43,44,45,46,47,48,49,50,51,52,53,55,56,57,58,59,60,61,62,63,64,65,66,67,68,69,70]
[2,3,4,5,8,2,9,5,7,9,4,5,4,3,3,2,2,1,4,3,6,2,4,5,3,5,5,3,4,6,1,2,3,2,3,5,2,1,3,1,4,5,4,3,8,7,6,6,4,2]
